33D32945 STP File, STP Format Version 1.0

SECTION Comment
Name "wrp3-12-5s"
Creator "Bernd Zey"
Problem "Stochastic Steiner Tree Problem"
# Stochastic Steiner tree problem instance, base file: wrp3-12.stp
# weight-scaling on, factor=0.010000 (for "big-M" edges)
# parameters:
# distribution=equal
# selectRootRandomly=0
# probabilityTerminal=33
# probabilityNonTerminal=5
# 2nd stage edge-costs in [1.1000c_e, 1.3000c_e]
END

SECTION Graph
Nodes 84
Edges 149
Scenarios 5
Root 73
E 1 68 6
E 1 70 1
E 1 71 1
E 1 72 5
E 2 72 6
E 3 70 5
E 3 72 1
E 4 71 5
E 4 72 1
E 5 10 7
E 5 62 1
E 5 63 1
E 5 64 6
E 6 64 5
E 6 65 1
E 6 67 1
E 6 68 1
E 7 62 6
E 7 64 1
E 7 65 5
E 8 63 6
E 8 64 1
E 8 67 5
E 9 14 7
E 9 57 1
E 9 58 1
E 9 59 5
E 10 59 6
E 10 60 1
E 10 61 1
E 11 57 5
E 11 59 1
E 11 60 6
E 12 58 5
E 12 59 1
E 12 61 6
E 13 18 7
E 13 52 1
E 13 53 1
E 13 54 6
E 14 54 5
E 14 55 1
E 14 56 1
E 15 52 6
E 15 54 1
E 15 55 5
E 16 53 6
E 16 54 1
E 16 56 5
E 17 22 7
E 17 47 1
E 17 48 1
E 17 49 5
E 18 49 6
E 18 50 1
E 18 51 1
E 19 47 5
E 19 49 1
E 19 50 6
E 20 48 5
E 20 49 1
E 20 51 6
E 21 26 7
E 21 42 1
E 21 43 1
E 21 44 6
E 22 44 5
E 22 45 1
E 22 46 1
E 23 42 6
E 23 44 1
E 23 45 5
E 24 43 6
E 24 44 1
E 24 46 5
E 25 38 1
E 25 39 5
E 26 39 6
E 26 40 1
E 26 41 1
E 27 39 1
E 27 40 6
E 28 38 5
E 28 39 1
E 28 41 6
E 29 30 17
E 29 31 1
E 30 32 1
E 31 32 17
E 31 33 16
E 32 34 16
E 33 34 17
E 33 36 1
E 34 38 58
E 35 36 17
E 37 66 34
E 40 42 7
E 41 43 7
E 45 47 7
E 46 48 7
E 50 52 7
E 51 53 7
E 55 57 7
E 56 58 7
E 60 62 7
E 61 63 7
E 65 66 1
E 66 68 1
E 66 70 6
E 67 69 1
E 68 69 1
E 69 71 6
E 1 73 1000
E 2 73 1000
E 3 73 1000
E 4 73 1000
E 5 74 1000
E 6 74 1000
E 7 74 1000
E 8 74 1000
E 9 75 1000
E 10 75 1000
E 11 75 1000
E 12 75 1000
E 13 76 1000
E 14 76 1000
E 15 76 1000
E 16 76 1000
E 17 77 1000
E 18 77 1000
E 19 77 1000
E 20 77 1000
E 21 78 1000
E 22 78 1000
E 23 78 1000
E 24 78 1000
E 25 79 1000
E 26 79 1000
E 27 79 1000
E 28 79 1000
E 29 80 1000
E 30 80 1000
E 31 81 1000
E 32 81 1000
E 33 82 1000
E 34 82 1000
E 35 83 1000
E 36 83 1000
E 37 84 1000
END

SECTION StochasticProbabilities
SP 0.14820 0.18520 0.25930 0.27770 0.12960
END

SECTION StochasticWeights
SE 7 7 7 7 7 
SE 2 2 2 2 2 
SE 2 2 2 2 2 
SE 6 6 6 6 6 
SE 7 7 7 7 7 
SE 6 6 6 6 6 
SE 2 2 2 2 2 
SE 6 6 6 6 6 
SE 2 2 2 2 2 
SE 8 9 9 9 9 
SE 2 2 2 2 2 
SE 2 2 2 2 2 
SE 7 7 7 7 7 
SE 6 6 6 6 6 
SE 2 2 2 2 2 
SE 2 2 2 2 2 
SE 2 2 2 2 2 
SE 7 7 7 7 7 
SE 2 2 2 2 2 
SE 6 6 6 6 6 
SE 7 7 7 7 7 
SE 2 2 2 2 2 
SE 6 6 6 6 6 
SE 9 8 8 8 9 
SE 2 2 2 2 2 
SE 2 2 2 2 2 
SE 6 6 6 6 6 
SE 7 7 7 7 7 
SE 2 2 2 2 2 
SE 2 2 2 2 2 
SE 6 6 6 6 6 
SE 2 2 2 2 2 
SE 7 7 7 7 7 
SE 6 6 6 6 6 
SE 2 2 2 2 2 
SE 7 7 7 7 7 
SE 9 8 9 9 8 
SE 2 2 2 2 2 
SE 2 2 2 2 2 
SE 7 7 7 7 7 
SE 6 6 6 6 6 
SE 2 2 2 2 2 
SE 2 2 2 2 2 
SE 7 7 7 7 7 
SE 2 2 2 2 2 
SE 6 6 6 6 6 
SE 7 7 7 7 7 
SE 2 2 2 2 2 
SE 6 6 6 6 6 
SE 8 8 9 8 8 
SE 2 2 2 2 2 
SE 2 2 2 2 2 
SE 6 6 6 6 6 
SE 7 7 7 7 7 
SE 2 2 2 2 2 
SE 2 2 2 2 2 
SE 6 6 6 6 6 
SE 2 2 2 2 2 
SE 7 7 7 7 7 
SE 6 6 6 6 6 
SE 2 2 2 2 2 
SE 7 7 7 7 7 
SE 9 9 9 8 9 
SE 2 2 2 2 2 
SE 2 2 2 2 2 
SE 7 7 7 7 7 
SE 6 6 6 6 6 
SE 2 2 2 2 2 
SE 2 2 2 2 2 
SE 7 7 7 7 7 
SE 2 2 2 2 2 
SE 6 6 6 6 6 
SE 7 7 7 7 7 
SE 2 2 2 2 2 
SE 6 6 6 6 6 
SE 2 2 2 2 2 
SE 6 6 6 6 6 
SE 7 7 7 7 7 
SE 2 2 2 2 2 
SE 2 2 2 2 2 
SE 2 2 2 2 2 
SE 7 7 7 7 7 
SE 6 6 6 6 6 
SE 2 2 2 2 2 
SE 7 7 7 7 7 
SE 22 21 19 19 20 
SE 2 2 2 2 2 
SE 2 2 2 2 2 
SE 19 20 22 21 19 
SE 18 18 20 19 20 
SE 18 19 20 18 18 
SE 22 22 22 22 21 
SE 2 2 2 2 2 
SE 71 74 64 66 70 
SE 21 22 21 21 20 
SE 44 38 43 40 43 
SE 8 8 9 9 8 
SE 9 8 9 9 8 
SE 8 8 9 8 9 
SE 9 8 8 8 8 
SE 9 8 9 9 9 
SE 8 8 8 8 8 
SE 8 9 8 9 8 
SE 8 8 8 8 9 
SE 9 8 8 9 8 
SE 8 8 9 9 8 
SE 2 2 2 2 2 
SE 2 2 2 2 2 
SE 7 7 7 7 7 
SE 2 2 2 2 2 
SE 2 2 2 2 2 
SE 7 7 7 7 7 
SE 1265 1156 1280 1203 1167 
SE 1253 1263 1274 1279 1235 
SE 1210 1273 1289 1209 1132 
SE 1142 1203 1160 1261 1295 
SE 1279 1248 1167 1183 1161 
SE 1127 1283 1211 1278 1135 
SE 1227 1103 1118 1205 1102 
SE 1105 1179 1157 1140 1171 
SE 1227 1280 1101 1148 1124 
SE 1292 1286 1236 1279 1116 
SE 1268 1188 1279 1151 1164 
SE 1278 1229 1266 1150 1164 
SE 1128 1145 1201 1175 1257 
SE 1119 1300 1293 1227 1145 
SE 1210 1105 1187 1276 1124 
SE 1300 1143 1294 1170 1221 
SE 1263 1152 1176 1116 1222 
SE 1267 1118 1156 1245 1229 
SE 1145 1283 1175 1172 1160 
SE 1290 1165 1170 1199 1179 
SE 1173 1173 1227 1291 1132 
SE 1110 1207 1138 1168 1246 
SE 1226 1252 1131 1110 1152 
SE 1214 1185 1236 1117 1112 
SE 1266 1197 1285 1100 1242 
SE 1130 1108 1198 1214 1167 
SE 1125 1157 1221 1226 1165 
SE 1273 1129 1181 1249 1225 
SE 1239 1142 1291 1129 1157 
SE 1158 1188 1262 1101 1116 
SE 1195 1195 1162 1170 1133 
SE 1153 1149 1270 1182 1174 
SE 1261 1100 1185 1230 1251 
SE 1255 1167 1150 1279 1115 
SE 1195 1252 1280 1143 1168 
SE 1240 1249 1252 1112 1263 
SE 1282 1149 1211 1206 1100 
END

SECTION StochasticTerminals
ST 1 0 0 0 0 0 
ST 2 0 0 0 0 0 
ST 3 0 0 0 0 0 
ST 4 0 0 1 0 0 
ST 5 0 0 0 0 0 
ST 6 0 0 0 0 0 
ST 7 0 0 0 0 0 
ST 8 0 0 0 0 0 
ST 9 0 0 0 0 0 
ST 10 0 0 0 0 0 
ST 11 0 0 0 0 0 
ST 12 0 0 0 0 0 
ST 13 0 0 0 0 0 
ST 14 0 0 0 0 0 
ST 15 0 0 0 0 0 
ST 16 0 0 0 0 0 
ST 17 0 0 0 0 0 
ST 18 1 0 0 0 0 
ST 19 0 0 0 0 0 
ST 20 0 0 0 0 0 
ST 21 0 0 0 0 0 
ST 22 0 0 0 0 0 
ST 23 0 0 0 0 0 
ST 24 0 0 0 0 0 
ST 25 0 0 0 0 0 
ST 26 0 0 0 0 0 
ST 27 0 0 0 0 0 
ST 28 0 0 0 0 0 
ST 29 0 0 0 0 0 
ST 30 0 0 0 0 0 
ST 31 0 0 0 0 0 
ST 32 0 0 0 0 1 
ST 33 0 0 0 0 0 
ST 34 0 0 0 0 0 
ST 35 0 0 0 0 0 
ST 36 1 0 0 0 0 
ST 37 0 0 0 0 0 
ST 38 0 0 0 0 0 
ST 39 0 0 0 0 0 
ST 40 0 0 0 0 0 
ST 41 0 0 0 0 0 
ST 42 0 0 0 0 0 
ST 43 0 0 0 0 0 
ST 44 0 0 0 0 1 
ST 45 0 0 0 0 0 
ST 46 0 0 0 0 0 
ST 47 0 0 0 0 0 
ST 48 0 0 0 0 0 
ST 49 0 0 0 0 0 
ST 50 0 0 0 0 0 
ST 51 0 0 0 0 0 
ST 52 0 0 0 0 0 
ST 53 0 0 0 0 0 
ST 54 0 0 0 0 0 
ST 55 0 0 0 0 0 
ST 56 0 0 0 0 1 
ST 57 0 0 0 0 0 
ST 58 0 0 0 0 0 
ST 59 0 0 0 0 0 
ST 60 0 0 0 0 0 
ST 61 0 0 0 0 0 
ST 62 0 0 0 0 0 
ST 63 0 0 0 0 0 
ST 64 0 0 0 0 0 
ST 65 0 0 0 0 0 
ST 66 0 0 0 0 0 
ST 67 0 0 0 0 0 
ST 68 0 0 1 0 0 
ST 69 0 0 0 0 0 
ST 70 0 0 0 0 0 
ST 71 0 0 1 0 0 
ST 72 1 0 0 0 0 
ST 73 1 1 1 1 1 
ST 74 0 0 0 0 0 
ST 75 0 0 0 1 1 
ST 76 0 0 1 0 0 
ST 77 0 0 1 1 0 
ST 78 0 0 0 0 0 
ST 79 0 0 0 0 0 
ST 80 0 0 0 0 0 
ST 81 1 1 1 1 0 
ST 82 0 1 0 0 1 
ST 83 0 0 0 0 0 
ST 84 1 0 0 0 0 
END


SECTION Coordinates
DD 1 10278 14392
DD 2 10289 14392
DD 3 10283 14391
DD 4 10283 14393
DD 5 10260 14392
DD 6 10271 14392
DD 7 10266 14391
DD 8 10266 14393
DD 9 10242 14392
DD 10 10253 14392
DD 11 10247 14391
DD 12 10247 14393
DD 13 10224 14392
DD 14 10235 14392
DD 15 10230 14391
DD 16 10230 14393
DD 17 10206 14392
DD 18 10217 14392
DD 19 10211 14391
DD 20 10211 14393
DD 21 10188 14392
DD 22 10199 14392
DD 23 10194 14391
DD 24 10194 14393
DD 25 10170 14392
DD 26 10181 14392
DD 27 10175 14391
DD 28 10175 14393
DD 29 10095 14410
DD 30 10112 14410
DD 31 10095 14409
DD 32 10112 14409
DD 33 10095 14393
DD 34 10112 14393
DD 35 10077 14393
DD 36 10094 14393
DD 37 10272 14357
DD 38 10170 14393
DD 39 10175 14392
DD 40 10181 14391
DD 41 10181 14393
DD 42 10188 14391
DD 43 10188 14393
DD 44 10194 14392
DD 45 10199 14391
DD 46 10199 14393
DD 47 10206 14391
DD 48 10206 14393
DD 49 10211 14392
DD 50 10217 14391
DD 51 10217 14393
DD 52 10224 14391
DD 53 10224 14393
DD 54 10230 14392
DD 55 10235 14391
DD 56 10235 14393
DD 57 10242 14391
DD 58 10242 14393
DD 59 10247 14392
DD 60 10253 14391
DD 61 10253 14393
DD 62 10260 14391
DD 63 10260 14393
DD 64 10266 14392
DD 65 10271 14391
DD 66 10272 14391
DD 67 10271 14393
DD 68 10272 14392
DD 69 10272 14393
DD 70 10278 14391
DD 71 10278 14393
DD 72 10283 14392
DD 73 10278 14392
DD 74 10289 14392
DD 75 10283 14391
DD 76 10283 14393
DD 77 10260 14392
DD 78 10271 14392
DD 79 10266 14391
DD 80 10266 14393
DD 81 10242 14392
DD 82 10253 14392
DD 83 10247 14391
DD 84 10247 14393
END

EOF
